d1 = 1;
d2 = 1;
c1 = 500;
c2 = 500;
c3 = 500;

Nodes = array1d(1..225,[1, 2, 3, 4, 5, 6, 7, 8, 9, 10, 11, 12, 13, 14, 15, 16, 17, 18, 19, 20, 21, 22, 23, 24, 25, 26, 27, 28, 29, 30, 31, 32, 33, 34, 35, 36, 37, 38, 39, 40, 41, 42, 43, 44, 45, 46, 47, 48, 49, 50, 51, 52, 53, 54, 55, 56, 57, 58, 59, 60, 61, 62, 63, 64, 65, 66, 67, 68, 69, 70, 71, 72, 73, 74, 75, 76, 77, 78, 79, 80, 81, 82, 83, 84, 85, 86, 87, 88, 89, 90, 91, 92, 93, 94, 95, 96, 97, 98, 99, 100, 101, 102, 103, 104, 105, 106, 107, 108, 109, 110, 111, 112, 113, 114, 115, 116, 117, 118, 119, 120, 121, 122, 123, 124, 125, 126, 127, 128, 129, 130, 131, 132, 133, 134, 135, 136, 137, 138, 139, 140, 141, 142, 143, 144, 145, 146, 147, 148, 149, 150, 151, 152, 153, 154, 155, 156, 157, 158, 159, 160, 161, 162, 163, 164, 165, 166, 167, 168, 169, 170, 171, 172, 173, 174, 175, 176, 177, 178, 179, 180, 181, 182, 183, 184, 185, 186, 187, 188, 189, 190, 191, 192, 193, 194, 195, 196, 197, 198, 199, 200, 201, 202, 203, 204, 205, 206, 207, 208, 209, 210, 211, 212, 213, 214, 215, 216, 217, 218, 219, 220, 221, 222, 223, 224, 225]);

Link_info = array2d(1..840, 1..4,[1, 2, 1, 500, 2, 1, 1, 500, 1, 16, 1, 500, 16, 1, 1, 500, 2, 3, 1, 500, 3, 2, 1, 500, 2, 17, 1, 500, 17, 2, 1, 500, 3, 4, 1, 500, 4, 3, 1, 500, 3, 18, 1, 500, 18, 3, 1, 500, 4, 5, 1, 500, 5, 4, 1, 500, 4, 19, 1, 500, 19, 4, 1, 500, 5, 6, 1, 500, 6, 5, 1, 500, 5, 20, 1, 500, 20, 5, 1, 500, 6, 7, 1, 500, 7, 6, 1, 500, 6, 21, 1, 500, 21, 6, 1, 500, 7, 8, 1, 500, 8, 7, 1, 500, 7, 22, 1, 500, 22, 7, 1, 500, 8, 9, 1, 500, 9, 8, 1, 500, 8, 23, 1, 500, 23, 8, 1, 500, 9, 10, 1, 500, 10, 9, 1, 500, 9, 24, 1, 500, 24, 9, 1, 500, 10, 11, 1, 500, 11, 10, 1, 500, 10, 25, 1, 500, 25, 10, 1, 500, 11, 12, 1, 500, 12, 11, 1, 500, 11, 26, 1, 500, 26, 11, 1, 500, 12, 13, 1, 500, 13, 12, 1, 500, 12, 27, 1, 500, 27, 12, 1, 500, 13, 14, 1, 500, 14, 13, 1, 500, 13, 28, 1, 500, 28, 13, 1, 500, 14, 15, 1, 500, 15, 14, 1, 500, 14, 29, 1, 500, 29, 14, 1, 500, 15, 30, 1, 500, 30, 15, 1, 500, 16, 17, 1, 500, 17, 16, 1, 500, 16, 31, 1, 500, 31, 16, 1, 500, 17, 18, 1, 500, 18, 17, 1, 500, 17, 32, 1, 500, 32, 17, 1, 500, 18, 19, 1, 500, 19, 18, 1, 500, 18, 33, 1, 500, 33, 18, 1, 500, 19, 20, 1, 500, 20, 19, 1, 500, 19, 34, 1, 500, 34, 19, 1, 500, 20, 21, 1, 500, 21, 20, 1, 500, 20, 35, 1, 500, 35, 20, 1, 500, 21, 22, 1, 500, 22, 21, 1, 500, 21, 36, 1, 500, 36, 21, 1, 500, 22, 23, 1, 500, 23, 22, 1, 500, 22, 37, 1, 500, 37, 22, 1, 500, 23, 24, 1, 500, 24, 23, 1, 500, 23, 38, 1, 500, 38, 23, 1, 500, 24, 25, 1, 500, 25, 24, 1, 500, 24, 39, 1, 500, 39, 24, 1, 500, 25, 26, 1, 500, 26, 25, 1, 500, 25, 40, 1, 500, 40, 25, 1, 500, 26, 27, 1, 500, 27, 26, 1, 500, 26, 41, 1, 500, 41, 26, 1, 500, 27, 28, 1, 500, 28, 27, 1, 500, 27, 42, 1, 500, 42, 27, 1, 500, 28, 29, 1, 500, 29, 28, 1, 500, 28, 43, 1, 500, 43, 28, 1, 500, 29, 30, 1, 500, 30, 29, 1, 500, 29, 44, 1, 500, 44, 29, 1, 500, 30, 45, 1, 500, 45, 30, 1, 500, 31, 32, 1, 500, 32, 31, 1, 500, 31, 46, 1, 500, 46, 31, 1, 500, 32, 33, 1, 500, 33, 32, 1, 500, 32, 47, 1, 500, 47, 32, 1, 500, 33, 34, 1, 500, 34, 33, 1, 500, 33, 48, 1, 500, 48, 33, 1, 500, 34, 35, 1, 500, 35, 34, 1, 500, 34, 49, 1, 500, 49, 34, 1, 500, 35, 36, 1, 500, 36, 35, 1, 500, 35, 50, 1, 500, 50, 35, 1, 500, 36, 37, 1, 500, 37, 36, 1, 500, 36, 51, 1, 500, 51, 36, 1, 500, 37, 38, 1, 500, 38, 37, 1, 500, 37, 52, 1, 500, 52, 37, 1, 500, 38, 39, 1, 500, 39, 38, 1, 500, 38, 53, 1, 500, 53, 38, 1, 500, 39, 40, 1, 500, 40, 39, 1, 500, 39, 54, 1, 500, 54, 39, 1, 500, 40, 41, 1, 500, 41, 40, 1, 500, 40, 55, 1, 500, 55, 40, 1, 500, 41, 42, 1, 500, 42, 41, 1, 500, 41, 56, 1, 500, 56, 41, 1, 500, 42, 43, 1, 500, 43, 42, 1, 500, 42, 57, 1, 500, 57, 42, 1, 500, 43, 44, 1, 500, 44, 43, 1, 500, 43, 58, 1, 500, 58, 43, 1, 500, 44, 45, 1, 500, 45, 44, 1, 500, 44, 59, 1, 500, 59, 44, 1, 500, 45, 60, 1, 500, 60, 45, 1, 500, 46, 47, 1, 500, 47, 46, 1, 500, 46, 61, 1, 500, 61, 46, 1, 500, 47, 48, 1, 500, 48, 47, 1, 500, 47, 62, 1, 500, 62, 47, 1, 500, 48, 49, 1, 500, 49, 48, 1, 500, 48, 63, 1, 500, 63, 48, 1, 500, 49, 50, 1, 500, 50, 49, 1, 500, 49, 64, 1, 500, 64, 49, 1, 500, 50, 51, 1, 500, 51, 50, 1, 500, 50, 65, 1, 500, 65, 50, 1, 500, 51, 52, 1, 500, 52, 51, 1, 500, 51, 66, 1, 500, 66, 51, 1, 500, 52, 53, 1, 500, 53, 52, 1, 500, 52, 67, 1, 500, 67, 52, 1, 500, 53, 54, 1, 500, 54, 53, 1, 500, 53, 68, 1, 500, 68, 53, 1, 500, 54, 55, 1, 500, 55, 54, 1, 500, 54, 69, 1, 500, 69, 54, 1, 500, 55, 56, 1, 500, 56, 55, 1, 500, 55, 70, 1, 500, 70, 55, 1, 500, 56, 57, 1, 500, 57, 56, 1, 500, 56, 71, 1, 500, 71, 56, 1, 500, 57, 58, 1, 500, 58, 57, 1, 500, 57, 72, 1, 500, 72, 57, 1, 500, 58, 59, 1, 500, 59, 58, 1, 500, 58, 73, 1, 500, 73, 58, 1, 500, 59, 60, 1, 500, 60, 59, 1, 500, 59, 74, 1, 500, 74, 59, 1, 500, 60, 75, 1, 500, 75, 60, 1, 500, 61, 62, 1, 500, 62, 61, 1, 500, 61, 76, 1, 500, 76, 61, 1, 500, 62, 63, 1, 500, 63, 62, 1, 500, 62, 77, 1, 500, 77, 62, 1, 500, 63, 64, 1, 500, 64, 63, 1, 500, 63, 78, 1, 500, 78, 63, 1, 500, 64, 65, 1, 500, 65, 64, 1, 500, 64, 79, 1, 500, 79, 64, 1, 500, 65, 66, 1, 500, 66, 65, 1, 500, 65, 80, 1, 500, 80, 65, 1, 500, 66, 67, 1, 500, 67, 66, 1, 500, 66, 81, 1, 500, 81, 66, 1, 500, 67, 68, 1, 500, 68, 67, 1, 500, 67, 82, 1, 500, 82, 67, 1, 500, 68, 69, 1, 500, 69, 68, 1, 500, 68, 83, 1, 500, 83, 68, 1, 500, 69, 70, 1, 500, 70, 69, 1, 500, 69, 84, 1, 500, 84, 69, 1, 500, 70, 71, 1, 500, 71, 70, 1, 500, 70, 85, 1, 500, 85, 70, 1, 500, 71, 72, 1, 500, 72, 71, 1, 500, 71, 86, 1, 500, 86, 71, 1, 500, 72, 73, 1, 500, 73, 72, 1, 500, 72, 87, 1, 500, 87, 72, 1, 500, 73, 74, 1, 500, 74, 73, 1, 500, 73, 88, 1, 500, 88, 73, 1, 500, 74, 75, 1, 500, 75, 74, 1, 500, 74, 89, 1, 500, 89, 74, 1, 500, 75, 90, 1, 500, 90, 75, 1, 500, 76, 77, 1, 500, 77, 76, 1, 500, 76, 91, 1, 500, 91, 76, 1, 500, 77, 78, 1, 500, 78, 77, 1, 500, 77, 92, 1, 500, 92, 77, 1, 500, 78, 79, 1, 500, 79, 78, 1, 500, 78, 93, 1, 500, 93, 78, 1, 500, 79, 80, 1, 500, 80, 79, 1, 500, 79, 94, 1, 500, 94, 79, 1, 500, 80, 81, 1, 500, 81, 80, 1, 500, 80, 95, 1, 500, 95, 80, 1, 500, 81, 82, 1, 500, 82, 81, 1, 500, 81, 96, 1, 500, 96, 81, 1, 500, 82, 83, 1, 500, 83, 82, 1, 500, 82, 97, 1, 500, 97, 82, 1, 500, 83, 84, 1, 500, 84, 83, 1, 500, 83, 98, 1, 500, 98, 83, 1, 500, 84, 85, 1, 500, 85, 84, 1, 500, 84, 99, 1, 500, 99, 84, 1, 500, 85, 86, 1, 500, 86, 85, 1, 500, 85, 100, 1, 500, 100, 85, 1, 500, 86, 87, 1, 500, 87, 86, 1, 500, 86, 101, 1, 500, 101, 86, 1, 500, 87, 88, 1, 500, 88, 87, 1, 500, 87, 102, 1, 500, 102, 87, 1, 500, 88, 89, 1, 500, 89, 88, 1, 500, 88, 103, 1, 500, 103, 88, 1, 500, 89, 90, 1, 500, 90, 89, 1, 500, 89, 104, 1, 500, 104, 89, 1, 500, 90, 105, 1, 500, 105, 90, 1, 500, 91, 92, 1, 500, 92, 91, 1, 500, 91, 106, 1, 500, 106, 91, 1, 500, 92, 93, 1, 500, 93, 92, 1, 500, 92, 107, 1, 500, 107, 92, 1, 500, 93, 94, 1, 500, 94, 93, 1, 500, 93, 108, 1, 500, 108, 93, 1, 500, 94, 95, 1, 500, 95, 94, 1, 500, 94, 109, 1, 500, 109, 94, 1, 500, 95, 96, 1, 500, 96, 95, 1, 500, 95, 110, 1, 500, 110, 95, 1, 500, 96, 97, 1, 500, 97, 96, 1, 500, 96, 111, 1, 500, 111, 96, 1, 500, 97, 98, 1, 500, 98, 97, 1, 500, 97, 112, 1, 500, 112, 97, 1, 500, 98, 99, 1, 500, 99, 98, 1, 500, 98, 113, 1, 500, 113, 98, 1, 500, 99, 100, 1, 500, 100, 99, 1, 500, 99, 114, 1, 500, 114, 99, 1, 500, 100, 101, 1, 500, 101, 100, 1, 500, 100, 115, 1, 500, 115, 100, 1, 500, 101, 102, 1, 500, 102, 101, 1, 500, 101, 116, 1, 500, 116, 101, 1, 500, 102, 103, 1, 500, 103, 102, 1, 500, 102, 117, 1, 500, 117, 102, 1, 500, 103, 104, 1, 500, 104, 103, 1, 500, 103, 118, 1, 500, 118, 103, 1, 500, 104, 105, 1, 500, 105, 104, 1, 500, 104, 119, 1, 500, 119, 104, 1, 500, 105, 120, 1, 500, 120, 105, 1, 500, 106, 107, 1, 500, 107, 106, 1, 500, 106, 121, 1, 500, 121, 106, 1, 500, 107, 108, 1, 500, 108, 107, 1, 500, 107, 122, 1, 500, 122, 107, 1, 500, 108, 109, 1, 500, 109, 108, 1, 500, 108, 123, 1, 500, 123, 108, 1, 500, 109, 110, 1, 500, 110, 109, 1, 500, 109, 124, 1, 500, 124, 109, 1, 500, 110, 111, 1, 500, 111, 110, 1, 500, 110, 125, 1, 500, 125, 110, 1, 500, 111, 112, 1, 500, 112, 111, 1, 500, 111, 126, 1, 500, 126, 111, 1, 500, 112, 113, 1, 500, 113, 112, 1, 500, 112, 127, 1, 500, 127, 112, 1, 500, 113, 114, 1, 500, 114, 113, 1, 500, 113, 128, 1, 500, 128, 113, 1, 500, 114, 115, 1, 500, 115, 114, 1, 500, 114, 129, 1, 500, 129, 114, 1, 500, 115, 116, 1, 500, 116, 115, 1, 500, 115, 130, 1, 500, 130, 115, 1, 500, 116, 117, 1, 500, 117, 116, 1, 500, 116, 131, 1, 500, 131, 116, 1, 500, 117, 118, 1, 500, 118, 117, 1, 500, 117, 132, 1, 500, 132, 117, 1, 500, 118, 119, 1, 500, 119, 118, 1, 500, 118, 133, 1, 500, 133, 118, 1, 500, 119, 120, 1, 500, 120, 119, 1, 500, 119, 134, 1, 500, 134, 119, 1, 500, 120, 135, 1, 500, 135, 120, 1, 500, 121, 122, 1, 500, 122, 121, 1, 500, 121, 136, 1, 500, 136, 121, 1, 500, 122, 123, 1, 500, 123, 122, 1, 500, 122, 137, 1, 500, 137, 122, 1, 500, 123, 124, 1, 500, 124, 123, 1, 500, 123, 138, 1, 500, 138, 123, 1, 500, 124, 125, 1, 500, 125, 124, 1, 500, 124, 139, 1, 500, 139, 124, 1, 500, 125, 126, 1, 500, 126, 125, 1, 500, 125, 140, 1, 500, 140, 125, 1, 500, 126, 127, 1, 500, 127, 126, 1, 500, 126, 141, 1, 500, 141, 126, 1, 500, 127, 128, 1, 500, 128, 127, 1, 500, 127, 142, 1, 500, 142, 127, 1, 500, 128, 129, 1, 500, 129, 128, 1, 500, 128, 143, 1, 500, 143, 128, 1, 500, 129, 130, 1, 500, 130, 129, 1, 500, 129, 144, 1, 500, 144, 129, 1, 500, 130, 131, 1, 500, 131, 130, 1, 500, 130, 145, 1, 500, 145, 130, 1, 500, 131, 132, 1, 500, 132, 131, 1, 500, 131, 146, 1, 500, 146, 131, 1, 500, 132, 133, 1, 500, 133, 132, 1, 500, 132, 147, 1, 500, 147, 132, 1, 500, 133, 134, 1, 500, 134, 133, 1, 500, 133, 148, 1, 500, 148, 133, 1, 500, 134, 135, 1, 500, 135, 134, 1, 500, 134, 149, 1, 500, 149, 134, 1, 500, 135, 150, 1, 500, 150, 135, 1, 500, 136, 137, 1, 500, 137, 136, 1, 500, 136, 151, 1, 500, 151, 136, 1, 500, 137, 138, 1, 500, 138, 137, 1, 500, 137, 152, 1, 500, 152, 137, 1, 500, 138, 139, 1, 500, 139, 138, 1, 500, 138, 153, 1, 500, 153, 138, 1, 500, 139, 140, 1, 500, 140, 139, 1, 500, 139, 154, 1, 500, 154, 139, 1, 500, 140, 141, 1, 500, 141, 140, 1, 500, 140, 155, 1, 500, 155, 140, 1, 500, 141, 142, 1, 500, 142, 141, 1, 500, 141, 156, 1, 500, 156, 141, 1, 500, 142, 143, 1, 500, 143, 142, 1, 500, 142, 157, 1, 500, 157, 142, 1, 500, 143, 144, 1, 500, 144, 143, 1, 500, 143, 158, 1, 500, 158, 143, 1, 500, 144, 145, 1, 500, 145, 144, 1, 500, 144, 159, 1, 500, 159, 144, 1, 500, 145, 146, 1, 500, 146, 145, 1, 500, 145, 160, 1, 500, 160, 145, 1, 500, 146, 147, 1, 500, 147, 146, 1, 500, 146, 161, 1, 500, 161, 146, 1, 500, 147, 148, 1, 500, 148, 147, 1, 500, 147, 162, 1, 500, 162, 147, 1, 500, 148, 149, 1, 500, 149, 148, 1, 500, 148, 163, 1, 500, 163, 148, 1, 500, 149, 150, 1, 500, 150, 149, 1, 500, 149, 164, 1, 500, 164, 149, 1, 500, 150, 165, 1, 500, 165, 150, 1, 500, 151, 152, 1, 500, 152, 151, 1, 500, 151, 166, 1, 500, 166, 151, 1, 500, 152, 153, 1, 500, 153, 152, 1, 500, 152, 167, 1, 500, 167, 152, 1, 500, 153, 154, 1, 500, 154, 153, 1, 500, 153, 168, 1, 500, 168, 153, 1, 500, 154, 155, 1, 500, 155, 154, 1, 500, 154, 169, 1, 500, 169, 154, 1, 500, 155, 156, 1, 500, 156, 155, 1, 500, 155, 170, 1, 500, 170, 155, 1, 500, 156, 157, 1, 500, 157, 156, 1, 500, 156, 171, 1, 500, 171, 156, 1, 500, 157, 158, 1, 500, 158, 157, 1, 500, 157, 172, 1, 500, 172, 157, 1, 500, 158, 159, 1, 500, 159, 158, 1, 500, 158, 173, 1, 500, 173, 158, 1, 500, 159, 160, 1, 500, 160, 159, 1, 500, 159, 174, 1, 500, 174, 159, 1, 500, 160, 161, 1, 500, 161, 160, 1, 500, 160, 175, 1, 500, 175, 160, 1, 500, 161, 162, 1, 500, 162, 161, 1, 500, 161, 176, 1, 500, 176, 161, 1, 500, 162, 163, 1, 500, 163, 162, 1, 500, 162, 177, 1, 500, 177, 162, 1, 500, 163, 164, 1, 500, 164, 163, 1, 500, 163, 178, 1, 500, 178, 163, 1, 500, 164, 165, 1, 500, 165, 164, 1, 500, 164, 179, 1, 500, 179, 164, 1, 500, 165, 180, 1, 500, 180, 165, 1, 500, 166, 167, 1, 500, 167, 166, 1, 500, 166, 181, 1, 500, 181, 166, 1, 500, 167, 168, 1, 500, 168, 167, 1, 500, 167, 182, 1, 500, 182, 167, 1, 500, 168, 169, 1, 500, 169, 168, 1, 500, 168, 183, 1, 500, 183, 168, 1, 500, 169, 170, 1, 500, 170, 169, 1, 500, 169, 184, 1, 500, 184, 169, 1, 500, 170, 171, 1, 500, 171, 170, 1, 500, 170, 185, 1, 500, 185, 170, 1, 500, 171, 172, 1, 500, 172, 171, 1, 500, 171, 186, 1, 500, 186, 171, 1, 500, 172, 173, 1, 500, 173, 172, 1, 500, 172, 187, 1, 500, 187, 172, 1, 500, 173, 174, 1, 500, 174, 173, 1, 500, 173, 188, 1, 500, 188, 173, 1, 500, 174, 175, 1, 500, 175, 174, 1, 500, 174, 189, 1, 500, 189, 174, 1, 500, 175, 176, 1, 500, 176, 175, 1, 500, 175, 190, 1, 500, 190, 175, 1, 500, 176, 177, 1, 500, 177, 176, 1, 500, 176, 191, 1, 500, 191, 176, 1, 500, 177, 178, 1, 500, 178, 177, 1, 500, 177, 192, 1, 500, 192, 177, 1, 500, 178, 179, 1, 500, 179, 178, 1, 500, 178, 193, 1, 500, 193, 178, 1, 500, 179, 180, 1, 500, 180, 179, 1, 500, 179, 194, 1, 500, 194, 179, 1, 500, 180, 195, 1, 500, 195, 180, 1, 500, 181, 182, 1, 500, 182, 181, 1, 500, 181, 196, 1, 500, 196, 181, 1, 500, 182, 183, 1, 500, 183, 182, 1, 500, 182, 197, 1, 500, 197, 182, 1, 500, 183, 184, 1, 500, 184, 183, 1, 500, 183, 198, 1, 500, 198, 183, 1, 500, 184, 185, 1, 500, 185, 184, 1, 500, 184, 199, 1, 500, 199, 184, 1, 500, 185, 186, 1, 500, 186, 185, 1, 500, 185, 200, 1, 500, 200, 185, 1, 500, 186, 187, 1, 500, 187, 186, 1, 500, 186, 201, 1, 500, 201, 186, 1, 500, 187, 188, 1, 500, 188, 187, 1, 500, 187, 202, 1, 500, 202, 187, 1, 500, 188, 189, 1, 500, 189, 188, 1, 500, 188, 203, 1, 500, 203, 188, 1, 500, 189, 190, 1, 500, 190, 189, 1, 500, 189, 204, 1, 500, 204, 189, 1, 500, 190, 191, 1, 500, 191, 190, 1, 500, 190, 205, 1, 500, 205, 190, 1, 500, 191, 192, 1, 500, 192, 191, 1, 500, 191, 206, 1, 500, 206, 191, 1, 500, 192, 193, 1, 500, 193, 192, 1, 500, 192, 207, 1, 500, 207, 192, 1, 500, 193, 194, 1, 500, 194, 193, 1, 500, 193, 208, 1, 500, 208, 193, 1, 500, 194, 195, 1, 500, 195, 194, 1, 500, 194, 209, 1, 500, 209, 194, 1, 500, 195, 210, 1, 500, 210, 195, 1, 500, 196, 197, 1, 500, 197, 196, 1, 500, 196, 211, 1, 500, 211, 196, 1, 500, 197, 198, 1, 500, 198, 197, 1, 500, 197, 212, 1, 500, 212, 197, 1, 500, 198, 199, 1, 500, 199, 198, 1, 500, 198, 213, 1, 500, 213, 198, 1, 500, 199, 200, 1, 500, 200, 199, 1, 500, 199, 214, 1, 500, 214, 199, 1, 500, 200, 201, 1, 500, 201, 200, 1, 500, 200, 215, 1, 500, 215, 200, 1, 500, 201, 202, 1, 500, 202, 201, 1, 500, 201, 216, 1, 500, 216, 201, 1, 500, 202, 203, 1, 500, 203, 202, 1, 500, 202, 217, 1, 500, 217, 202, 1, 500, 203, 204, 1, 500, 204, 203, 1, 500, 203, 218, 1, 500, 218, 203, 1, 500, 204, 205, 1, 500, 205, 204, 1, 500, 204, 219, 1, 500, 219, 204, 1, 500, 205, 206, 1, 500, 206, 205, 1, 500, 205, 220, 1, 500, 220, 205, 1, 500, 206, 207, 1, 500, 207, 206, 1, 500, 206, 221, 1, 500, 221, 206, 1, 500, 207, 208, 1, 500, 208, 207, 1, 500, 207, 222, 1, 500, 222, 207, 1, 500, 208, 209, 1, 500, 209, 208, 1, 500, 208, 223, 1, 500, 223, 208, 1, 500, 209, 210, 1, 500, 210, 209, 1, 500, 209, 224, 1, 500, 224, 209, 1, 500, 210, 225, 1, 500, 225, 210, 1, 500, 211, 212, 1, 500, 212, 211, 1, 500, 212, 213, 1, 500, 213, 212, 1, 500, 213, 214, 1, 500, 214, 213, 1, 500, 214, 215, 1, 500, 215, 214, 1, 500, 215, 216, 1, 500, 216, 215, 1, 500, 216, 217, 1, 500, 217, 216, 1, 500, 217, 218, 1, 500, 218, 217, 1, 500, 218, 219, 1, 500, 219, 218, 1, 500, 219, 220, 1, 500, 220, 219, 1, 500, 220, 221, 1, 500, 221, 220, 1, 500, 221, 222, 1, 500, 222, 221, 1, 500, 222, 223, 1, 500, 223, 222, 1, 500, 223, 224, 1, 500, 224, 223, 1, 500, 224, 225, 1, 500, 225, 224, 1, 500]);Flow_demands = [1, 1, 1, 1, 1, 1, 1, 1];s = [1, 1, 1, 1, 1, 1, 1, 1];t = [225, 225, 225, 225, 225, 225, 225, 225];Limits = [50, 50, 50, 50, 50, 50, 50, 50];


